NAME          BLANK   
ROWS
 N  OBJROW
 L  R0000000
COLUMNS
    C0000000  OBJROW     -470.         R0000000  96.         
    C0000001  OBJROW     -947.         R0000000  75.         
    C0000002  OBJROW     -928.         R0000000  182.        
    C0000003  OBJROW     -177.         R0000000  316.        
    C0000004  OBJROW     -833.         R0000000  607.        
    C0000005  OBJROW     -290.         R0000000  972.        
    C0000006  OBJROW     -481.         R0000000  895.        
    C0000007  OBJROW     -328.         R0000000  636.        
    C0000008  OBJROW     -675.         R0000000  669.        
    C0000009  OBJROW     -776.         R0000000  413.        
    C0000010  OBJROW     -467.         R0000000  510.        
    C0000011  OBJROW     -270.         R0000000  61.         
    C0000012  OBJROW     -932.         R0000000  260.        
    C0000013  OBJROW     -830.         R0000000  806.        
    C0000014  OBJROW     -460.         R0000000  324.        
    C0000015  OBJROW     -902.         R0000000  927.        
    C0000016  OBJROW     -261.         R0000000  268.        
    C0000017  OBJROW     -348.         R0000000  13.         
    C0000018  OBJROW     -87.          R0000000  877.        
    C0000019  OBJROW     -380.         R0000000  30.         
    C0000020  OBJROW     -871.         R0000000  725.        
    C0000021  OBJROW     -564.         R0000000  174.        
    C0000022  OBJROW     -149.         R0000000  723.        
    C0000023  OBJROW     -126.         R0000000  440.        
    C0000024  OBJROW     -541.         R0000000  145.        
    C0000025  OBJROW     -660.         R0000000  153.        
    C0000026  OBJROW     -126.         R0000000  561.        
    C0000027  OBJROW     -644.         R0000000  449.        
    C0000028  OBJROW     -294.         R0000000  785.        
    C0000029  OBJROW     -373.         R0000000  937.        
    C0000030  OBJROW     -212.         R0000000  706.        
    C0000031  OBJROW     -367.         R0000000  423.        
    C0000032  OBJROW     -860.         R0000000  475.        
    C0000033  OBJROW     -327.         R0000000  792.        
    C0000034  OBJROW     -682.         R0000000  355.        
    C0000035  OBJROW     -408.         R0000000  582.        
    C0000036  OBJROW     -546.         R0000000  836.        
    C0000037  OBJROW     -505.         R0000000  6.          
    C0000038  OBJROW     -442.         R0000000  428.        
    C0000039  OBJROW     -209.         R0000000  278.        
    C0000040  OBJROW     -546.         R0000000  573.        
    C0000041  OBJROW     -487.         R0000000  492.        
    C0000042  OBJROW     -44.          R0000000  438.        
    C0000043  OBJROW     -535.         R0000000  468.        
    C0000044  OBJROW     -308.         R0000000  423.        
    C0000045  OBJROW     -85.          R0000000  538.        
    C0000046  OBJROW     -549.         R0000000  233.        
    C0000047  OBJROW     -253.         R0000000  642.        
    C0000048  OBJROW     -293.         R0000000  255.        
    C0000049  OBJROW     -470.         R0000000  35.         
RHS
    RHS       R0000000  11503.      
BOUNDS
 BV BOUND     C0000000  1.          
 BV BOUND     C0000001  1.          
 BV BOUND     C0000002  1.          
 BV BOUND     C0000003  1.          
 BV BOUND     C0000004  1.          
 BV BOUND     C0000005  1.          
 BV BOUND     C0000006  1.          
 BV BOUND     C0000007  1.          
 BV BOUND     C0000008  1.          
 BV BOUND     C0000009  1.          
 BV BOUND     C0000010  1.          
 BV BOUND     C0000011  1.          
 BV BOUND     C0000012  1.          
 BV BOUND     C0000013  1.          
 BV BOUND     C0000014  1.          
 BV BOUND     C0000015  1.          
 BV BOUND     C0000016  1.          
 BV BOUND     C0000017  1.          
 BV BOUND     C0000018  1.          
 BV BOUND     C0000019  1.          
 BV BOUND     C0000020  1.          
 BV BOUND     C0000021  1.          
 BV BOUND     C0000022  1.          
 BV BOUND     C0000023  1.          
 BV BOUND     C0000024  1.          
 BV BOUND     C0000025  1.          
 BV BOUND     C0000026  1.          
 BV BOUND     C0000027  1.          
 BV BOUND     C0000028  1.          
 BV BOUND     C0000029  1.          
 BV BOUND     C0000030  1.          
 BV BOUND     C0000031  1.          
 BV BOUND     C0000032  1.          
 BV BOUND     C0000033  1.          
 BV BOUND     C0000034  1.          
 BV BOUND     C0000035  1.          
 BV BOUND     C0000036  1.          
 BV BOUND     C0000037  1.          
 BV BOUND     C0000038  1.          
 BV BOUND     C0000039  1.          
 BV BOUND     C0000040  1.          
 BV BOUND     C0000041  1.          
 BV BOUND     C0000042  1.          
 BV BOUND     C0000043  1.          
 BV BOUND     C0000044  1.          
 BV BOUND     C0000045  1.          
 BV BOUND     C0000046  1.          
 BV BOUND     C0000047  1.          
 BV BOUND     C0000048  1.          
 BV BOUND     C0000049  1.          
ENDATA
